Version identifier: 22.1.0.0 | 2022-03-09 | 1a383f8ce
CPXPARAM_Threads                                 1
CPXPARAM_MIP_Strategy_VariableSelect             3
CPXPARAM_TimeLimit                               599.99158043700004
Tried aggregator 1 time.
MIP Presolve eliminated 728 rows and 1432 columns.
Reduced MIP has 1790 rows, 2864 columns, and 19958 nonzeros.
Reduced MIP has 2864 binaries, 0 generals, 0 SOSs, and 0 indicators.
Presolve time = 0.02 sec. (11.49 ticks)
Probing time = 0.00 sec. (2.71 ticks)
Tried aggregator 1 time.
Detecting symmetries...
Reduced MIP has 1790 rows, 2864 columns, and 19958 nonzeros.
Reduced MIP has 2864 binaries, 0 generals, 0 SOSs, and 0 indicators.
Presolve time = 0.02 sec. (11.87 ticks)
Probing time = 0.00 sec. (2.71 ticks)
Clique table members: 1071.
MIP emphasis: balance optimality and feasibility.
MIP search method: dynamic search.
Parallel mode: none, using 1 thread.
Root relaxation solution time = 0.02 sec. (21.16 ticks)

        Nodes                                         Cuts/
   Node  Left     Objective  IInf  Best Integer    Best Bound    ItCnt     Gap

      0     0    infeasible                                        537         

Root node processing (before b&c):
  Real time             =    0.15 sec. (97.32 ticks)
Sequential b&c:
  Real time             =    0.00 sec. (0.00 ticks)
                          ------------
Total (root+branch&cut) =    0.15 sec. (97.32 ticks)
Primal:	357
Dual:	357
Status:	Optimal
Time:	0.196825
Sequence:
	0
